p edge 546 531
e 1 2
e 1 3
e 1 4
e 1 5
e 1 6
e 1 7
e 1 8
e 1 9
e 1 10
e 1 11
e 1 12
e 1 13
e 1 14
e 1 15
e 1 16
e 1 17
e 1 18
e 1 19
e 1 20
e 1 21
e 1 22
e 1 23
e 1 24
e 1 25
e 1 26
e 1 27
e 1 28
e 1 29
e 1 30
e 1 31
e 1 32
e 1 33
e 1 34
e 1 35
e 1 36
e 1 37
e 1 38
e 1 39
e 1 40
e 1 41
e 1 42
e 1 43
e 1 44
e 1 45
e 1 46
e 1 47
e 1 48
e 1 49
e 1 50
e 1 51
e 52 53
e 52 54
e 52 55
e 52 56
e 52 57
e 52 58
e 52 59
e 52 60
e 52 61
e 52 62
e 52 63
e 52 64
e 52 65
e 52 66
e 52 67
e 52 68
e 52 69
e 52 70
e 52 71
e 52 72
e 52 73
e 52 74
e 52 75
e 52 76
e 52 77
e 52 78
e 52 79
e 52 80
e 52 81
e 52 82
e 52 83
e 52 84
e 52 85
e 52 86
e 52 87
e 52 88
e 52 89
e 52 90
e 52 91
e 52 92
e 93 94
e 93 95
e 93 96
e 93 97
e 93 98
e 93 99
e 93 100
e 93 101
e 93 102
e 93 103
e 93 104
e 93 105
e 93 106
e 93 107
e 93 108
e 93 109
e 93 110
e 93 111
e 93 112
e 93 113
e 93 114
e 93 115
e 93 116
e 93 117
e 93 118
e 93 119
e 93 120
e 93 121
e 93 122
e 93 123
e 93 124
e 93 125
e 93 126
e 93 127
e 93 128
e 93 129
e 93 130
e 93 131
e 93 132
e 93 133
e 93 134
e 93 135
e 93 136
e 93 137
e 93 138
e 139 140
e 139 141
e 139 142
e 139 143
e 139 144
e 139 145
e 139 146
e 139 147
e 139 148
e 139 149
e 139 150
e 139 151
e 139 152
e 139 153
e 139 154
e 139 155
e 139 156
e 139 157
e 139 158
e 139 159
e 139 160
e 139 161
e 139 162
e 139 163
e 139 164
e 139 165
e 139 166
e 139 167
e 139 168
e 139 169
e 139 170
e 139 171
e 139 172
e 139 173
e 139 174
e 139 175
e 139 176
e 139 177
e 139 178
e 139 179
e 139 180
e 139 181
e 182 183
e 182 184
e 182 185
e 182 186
e 182 187
e 182 188
e 182 189
e 182 190
e 182 191
e 182 192
e 182 193
e 182 194
e 182 195
e 182 196
e 182 197
e 182 198
e 182 199
e 182 200
e 182 201
e 182 202
e 182 203
e 182 204
e 182 205
e 182 206
e 182 207
e 182 208
e 182 209
e 182 210
e 182 211
e 182 212
e 182 213
e 182 214
e 182 215
e 182 216
e 182 217
e 182 218
e 182 219
e 220 221
e 220 222
e 220 223
e 220 224
e 220 225
e 220 226
e 220 227
e 220 228
e 220 229
e 220 230
e 220 231
e 220 232
e 220 233
e 220 234
e 220 235
e 220 236
e 220 237
e 220 238
e 220 239
e 240 241
e 240 242
e 240 243
e 240 244
e 240 245
e 240 246
e 240 247
e 240 248
e 240 249
e 240 250
e 240 251
e 240 252
e 240 253
e 240 254
e 240 255
e 240 256
e 240 257
e 240 258
e 240 259
e 240 260
e 240 261
e 240 262
e 240 263
e 240 264
e 240 265
e 240 266
e 240 267
e 240 268
e 240 269
e 240 270
e 240 271
e 240 272
e 240 273
e 240 274
e 240 275
e 240 276
e 240 277
e 240 278
e 240 279
e 240 280
e 281 282
e 281 283
e 281 284
e 281 285
e 281 286
e 281 287
e 281 288
e 281 289
e 281 290
e 281 291
e 281 292
e 281 293
e 281 294
e 281 295
e 281 296
e 281 297
e 281 298
e 281 299
e 281 300
e 281 301
e 281 302
e 281 303
e 281 304
e 281 305
e 281 306
e 281 307
e 281 308
e 281 309
e 281 310
e 281 311
e 281 312
e 281 313
e 281 314
e 281 315
e 281 316
e 281 317
e 281 318
e 281 319
e 320 321
e 320 322
e 320 323
e 320 324
e 320 325
e 320 326
e 320 327
e 320 328
e 320 329
e 320 330
e 320 331
e 320 332
e 320 333
e 320 334
e 320 335
e 320 336
e 320 337
e 320 338
e 320 339
e 320 340
e 320 341
e 320 342
e 320 343
e 344 345
e 344 346
e 344 347
e 344 348
e 344 349
e 344 350
e 344 351
e 344 352
e 344 353
e 344 354
e 344 355
e 344 356
e 344 357
e 344 358
e 344 359
e 344 360
e 344 361
e 344 362
e 344 363
e 344 364
e 365 366
e 365 367
e 365 368
e 365 369
e 365 370
e 365 371
e 365 372
e 365 373
e 365 374
e 365 375
e 365 376
e 365 377
e 365 378
e 365 379
e 365 380
e 365 381
e 365 382
e 365 383
e 365 384
e 365 385
e 365 386
e 365 387
e 365 388
e 365 389
e 365 390
e 365 391
e 365 392
e 365 393
e 365 394
e 365 395
e 365 396
e 365 397
e 365 398
e 365 399
e 365 400
e 365 401
e 365 402
e 365 403
e 365 404
e 365 405
e 365 406
e 365 407
e 365 408
e 365 409
e 365 410
e 365 411
e 365 412
e 413 414
e 413 415
e 413 416
e 413 417
e 413 418
e 413 419
e 413 420
e 413 421
e 413 422
e 413 423
e 413 424
e 413 425
e 413 426
e 413 427
e 413 428
e 413 429
e 413 430
e 413 431
e 413 432
e 413 433
e 413 434
e 413 435
e 413 436
e 413 437
e 413 438
e 413 439
e 413 440
e 413 441
e 442 443
e 442 444
e 442 445
e 442 446
e 442 447
e 442 448
e 442 449
e 442 450
e 442 451
e 442 452
e 442 453
e 442 454
e 442 455
e 442 456
e 442 457
e 442 458
e 442 459
e 442 460
e 442 461
e 442 462
e 463 464
e 463 465
e 463 466
e 463 467
e 463 468
e 463 469
e 463 470
e 463 471
e 463 472
e 463 473
e 463 474
e 463 475
e 463 476
e 463 477
e 463 478
e 463 479
e 463 480
e 463 481
e 463 482
e 463 483
e 463 484
e 463 485
e 463 486
e 463 487
e 463 488
e 463 489
e 463 490
e 463 491
e 463 492
e 463 493
e 463 494
e 463 495
e 463 496
e 463 497
e 463 498
e 463 499
e 463 500
e 463 501
e 463 502
e 463 503
e 463 504
e 505 506
e 505 507
e 505 508
e 505 509
e 505 510
e 505 511
e 505 512
e 505 513
e 505 514
e 505 515
e 505 516
e 505 517
e 505 518
e 505 519
e 505 520
e 505 521
e 505 522
e 505 523
e 505 524
e 505 525
e 505 526
e 505 527
e 505 528
e 505 529
e 505 530
e 505 531
e 505 532
e 505 533
e 505 534
e 505 535
e 505 536
e 505 537
e 505 538
e 505 539
e 505 540
e 505 541
e 505 542
e 505 543
e 505 544
e 505 545
e 505 546
